32      4       
10      10      10      10      
0       0       0       0       0       1       2       
9       0       1       1       1       2       3       15      
9       0       3       3       4       1       4       
10      1       7       7       0       2       5       25      
2       1       4       0       3       1       6       
2       0       3       5       2       2       7       17      
2       4       0       3       3       3       8       29      30      
1       6       4       0       4       2       9       31      
5       0       6       4       3       1       10      
3       3       0       2       3       2       11      28      
7       5       6       4       0       1       12      
7       4       0       7       3       1       13      
6       5       1       0       5       2       14      27      
10      5       3       0       1       2       16      22      
3       5       0       5       5       1       16      
6       1       0       1       6       1       18      
7       0       4       5       6       2       20      30      
5       0       4       7       7       1       19      
2       0       7       5       5       1       20      
3       2       3       0       3       1       21      
9       6       0       3       3       1       23      
4       4       2       3       0       1       23      
9       4       4       5       0       1       24      
6       5       0       2       7       1       26      
7       0       7       6       6       1       29      
7       4       1       5       0       1       32      
9       3       3       4       0       1       32      
1       5       3       2       0       1       32      
9       6       4       0       4       1       32      
2       4       6       3       0       1       32      
9       5       6       0       4       1       32      
0       0       0       0       0       0       
